Traveling Salesman Problem/TSP_generados/Aleatorio1621103250_6.tsp
NAME: Aleatorio1621103250_6.tsp
COMMENT: Randomly generated scenario
TYPE: TSP
DIMENSION: 6
EDGE_WEIGHT_TYPE: ATT
NODE_COORD_SECTION
1 36.78 18.83
2 48.24 24.36
3 10.05 27.88
4 45.81 21.64
5 42.7 12.99
6 2.48 0.81
