Traveling Salesman Problem/TSP_generados/Aleatorio1621103250_6.opt.tour
NAME: Aleatorio1621103250_6.opt.tour
COMMENT: Optimal solution for Aleatorio1621103250_6 (123.91677436403411)
TYPE: TOUR
DIMENSION: 6
TOUR_SECTION
1 3 6 5 4 2
-1
EOF
